c *********************************
c * Circuit generated by BenCGen
c *
c * RippleCarryAdder_121_121_121_InOutT
c *
c * Ports with 1 gate(s): 1
c * Ports with 2 gate(s): 606
c * Total gates: 607
c *********************************
p cnf 849 2062
1 366 0
-1 -366 0
1 -365 0
366 -365 0
-1 -366 365 0
1 122 -368 0
-1 122 368 0
1 -122 368 0
-1 -122 -368 0
368 365 -243 0
-368 365 243 0
368 -365 243 0
-368 -365 -243 0
365 -369 0
368 -369 0
-365 -368 369 0
122 -370 0
1 -370 0
-122 -1 370 0
-369 367 0
-370 367 0
369 370 -367 0
2 123 -372 0
-2 123 372 0
2 -123 372 0
-2 -123 -372 0
372 367 -244 0
-372 367 244 0
372 -367 244 0
-372 -367 -244 0
367 -373 0
372 -373 0
-367 -372 373 0
123 -374 0
2 -374 0
-123 -2 374 0
-373 371 0
-374 371 0
373 374 -371 0
3 124 -376 0
-3 124 376 0
3 -124 376 0
-3 -124 -376 0
376 371 -245 0
-376 371 245 0
376 -371 245 0
-376 -371 -245 0
371 -377 0
376 -377 0
-371 -376 377 0
124 -378 0
3 -378 0
-124 -3 378 0
-377 375 0
-378 375 0
377 378 -375 0
4 125 -380 0
-4 125 380 0
4 -125 380 0
-4 -125 -380 0
380 375 -246 0
-380 375 246 0
380 -375 246 0
-380 -375 -246 0
375 -381 0
380 -381 0
-375 -380 381 0
125 -382 0
4 -382 0
-125 -4 382 0
-381 379 0
-382 379 0
381 382 -379 0
5 126 -384 0
-5 126 384 0
5 -126 384 0
-5 -126 -384 0
384 379 -247 0
-384 379 247 0
384 -379 247 0
-384 -379 -247 0
379 -385 0
384 -385 0
-379 -384 385 0
126 -386 0
5 -386 0
-126 -5 386 0
-385 383 0
-386 383 0
385 386 -383 0
6 127 -388 0
-6 127 388 0
6 -127 388 0
-6 -127 -388 0
388 383 -248 0
-388 383 248 0
388 -383 248 0
-388 -383 -248 0
383 -389 0
388 -389 0
-383 -388 389 0
127 -390 0
6 -390 0
-127 -6 390 0
-389 387 0
-390 387 0
389 390 -387 0
7 128 -392 0
-7 128 392 0
7 -128 392 0
-7 -128 -392 0
392 387 -249 0
-392 387 249 0
392 -387 249 0
-392 -387 -249 0
387 -393 0
392 -393 0
-387 -392 393 0
128 -394 0
7 -394 0
-128 -7 394 0
-393 391 0
-394 391 0
393 394 -391 0
8 129 -396 0
-8 129 396 0
8 -129 396 0
-8 -129 -396 0
396 391 -250 0
-396 391 250 0
396 -391 250 0
-396 -391 -250 0
391 -397 0
396 -397 0
-391 -396 397 0
129 -398 0
8 -398 0
-129 -8 398 0
-397 395 0
-398 395 0
397 398 -395 0
9 130 -400 0
-9 130 400 0
9 -130 400 0
-9 -130 -400 0
400 395 -251 0
-400 395 251 0
400 -395 251 0
-400 -395 -251 0
395 -401 0
400 -401 0
-395 -400 401 0
130 -402 0
9 -402 0
-130 -9 402 0
-401 399 0
-402 399 0
401 402 -399 0
10 131 -404 0
-10 131 404 0
10 -131 404 0
-10 -131 -404 0
404 399 -252 0
-404 399 252 0
404 -399 252 0
-404 -399 -252 0
399 -405 0
404 -405 0
-399 -404 405 0
131 -406 0
10 -406 0
-131 -10 406 0
-405 403 0
-406 403 0
405 406 -403 0
11 132 -408 0
-11 132 408 0
11 -132 408 0
-11 -132 -408 0
408 403 -253 0
-408 403 253 0
408 -403 253 0
-408 -403 -253 0
403 -409 0
408 -409 0
-403 -408 409 0
132 -410 0
11 -410 0
-132 -11 410 0
-409 407 0
-410 407 0
409 410 -407 0
12 133 -412 0
-12 133 412 0
12 -133 412 0
-12 -133 -412 0
412 407 -254 0
-412 407 254 0
412 -407 254 0
-412 -407 -254 0
407 -413 0
412 -413 0
-407 -412 413 0
133 -414 0
12 -414 0
-133 -12 414 0
-413 411 0
-414 411 0
413 414 -411 0
13 134 -416 0
-13 134 416 0
13 -134 416 0
-13 -134 -416 0
416 411 -255 0
-416 411 255 0
416 -411 255 0
-416 -411 -255 0
411 -417 0
416 -417 0
-411 -416 417 0
134 -418 0
13 -418 0
-134 -13 418 0
-417 415 0
-418 415 0
417 418 -415 0
14 135 -420 0
-14 135 420 0
14 -135 420 0
-14 -135 -420 0
420 415 -256 0
-420 415 256 0
420 -415 256 0
-420 -415 -256 0
415 -421 0
420 -421 0
-415 -420 421 0
135 -422 0
14 -422 0
-135 -14 422 0
-421 419 0
-422 419 0
421 422 -419 0
15 136 -424 0
-15 136 424 0
15 -136 424 0
-15 -136 -424 0
424 419 -257 0
-424 419 257 0
424 -419 257 0
-424 -419 -257 0
419 -425 0
424 -425 0
-419 -424 425 0
136 -426 0
15 -426 0
-136 -15 426 0
-425 423 0
-426 423 0
425 426 -423 0
16 137 -428 0
-16 137 428 0
16 -137 428 0
-16 -137 -428 0
428 423 -258 0
-428 423 258 0
428 -423 258 0
-428 -423 -258 0
423 -429 0
428 -429 0
-423 -428 429 0
137 -430 0
16 -430 0
-137 -16 430 0
-429 427 0
-430 427 0
429 430 -427 0
17 138 -432 0
-17 138 432 0
17 -138 432 0
-17 -138 -432 0
432 427 -259 0
-432 427 259 0
432 -427 259 0
-432 -427 -259 0
427 -433 0
432 -433 0
-427 -432 433 0
138 -434 0
17 -434 0
-138 -17 434 0
-433 431 0
-434 431 0
433 434 -431 0
18 139 -436 0
-18 139 436 0
18 -139 436 0
-18 -139 -436 0
436 431 -260 0
-436 431 260 0
436 -431 260 0
-436 -431 -260 0
431 -437 0
436 -437 0
-431 -436 437 0
139 -438 0
18 -438 0
-139 -18 438 0
-437 435 0
-438 435 0
437 438 -435 0
19 140 -440 0
-19 140 440 0
19 -140 440 0
-19 -140 -440 0
440 435 -261 0
-440 435 261 0
440 -435 261 0
-440 -435 -261 0
435 -441 0
440 -441 0
-435 -440 441 0
140 -442 0
19 -442 0
-140 -19 442 0
-441 439 0
-442 439 0
441 442 -439 0
20 141 -444 0
-20 141 444 0
20 -141 444 0
-20 -141 -444 0
444 439 -262 0
-444 439 262 0
444 -439 262 0
-444 -439 -262 0
439 -445 0
444 -445 0
-439 -444 445 0
141 -446 0
20 -446 0
-141 -20 446 0
-445 443 0
-446 443 0
445 446 -443 0
21 142 -448 0
-21 142 448 0
21 -142 448 0
-21 -142 -448 0
448 443 -263 0
-448 443 263 0
448 -443 263 0
-448 -443 -263 0
443 -449 0
448 -449 0
-443 -448 449 0
142 -450 0
21 -450 0
-142 -21 450 0
-449 447 0
-450 447 0
449 450 -447 0
22 143 -452 0
-22 143 452 0
22 -143 452 0
-22 -143 -452 0
452 447 -264 0
-452 447 264 0
452 -447 264 0
-452 -447 -264 0
447 -453 0
452 -453 0
-447 -452 453 0
143 -454 0
22 -454 0
-143 -22 454 0
-453 451 0
-454 451 0
453 454 -451 0
23 144 -456 0
-23 144 456 0
23 -144 456 0
-23 -144 -456 0
456 451 -265 0
-456 451 265 0
456 -451 265 0
-456 -451 -265 0
451 -457 0
456 -457 0
-451 -456 457 0
144 -458 0
23 -458 0
-144 -23 458 0
-457 455 0
-458 455 0
457 458 -455 0
24 145 -460 0
-24 145 460 0
24 -145 460 0
-24 -145 -460 0
460 455 -266 0
-460 455 266 0
460 -455 266 0
-460 -455 -266 0
455 -461 0
460 -461 0
-455 -460 461 0
145 -462 0
24 -462 0
-145 -24 462 0
-461 459 0
-462 459 0
461 462 -459 0
25 146 -464 0
-25 146 464 0
25 -146 464 0
-25 -146 -464 0
464 459 -267 0
-464 459 267 0
464 -459 267 0
-464 -459 -267 0
459 -465 0
464 -465 0
-459 -464 465 0
146 -466 0
25 -466 0
-146 -25 466 0
-465 463 0
-466 463 0
465 466 -463 0
26 147 -468 0
-26 147 468 0
26 -147 468 0
-26 -147 -468 0
468 463 -268 0
-468 463 268 0
468 -463 268 0
-468 -463 -268 0
463 -469 0
468 -469 0
-463 -468 469 0
147 -470 0
26 -470 0
-147 -26 470 0
-469 467 0
-470 467 0
469 470 -467 0
27 148 -472 0
-27 148 472 0
27 -148 472 0
-27 -148 -472 0
472 467 -269 0
-472 467 269 0
472 -467 269 0
-472 -467 -269 0
467 -473 0
472 -473 0
-467 -472 473 0
148 -474 0
27 -474 0
-148 -27 474 0
-473 471 0
-474 471 0
473 474 -471 0
28 149 -476 0
-28 149 476 0
28 -149 476 0
-28 -149 -476 0
476 471 -270 0
-476 471 270 0
476 -471 270 0
-476 -471 -270 0
471 -477 0
476 -477 0
-471 -476 477 0
149 -478 0
28 -478 0
-149 -28 478 0
-477 475 0
-478 475 0
477 478 -475 0
29 150 -480 0
-29 150 480 0
29 -150 480 0
-29 -150 -480 0
480 475 -271 0
-480 475 271 0
480 -475 271 0
-480 -475 -271 0
475 -481 0
480 -481 0
-475 -480 481 0
150 -482 0
29 -482 0
-150 -29 482 0
-481 479 0
-482 479 0
481 482 -479 0
30 151 -484 0
-30 151 484 0
30 -151 484 0
-30 -151 -484 0
484 479 -272 0
-484 479 272 0
484 -479 272 0
-484 -479 -272 0
479 -485 0
484 -485 0
-479 -484 485 0
151 -486 0
30 -486 0
-151 -30 486 0
-485 483 0
-486 483 0
485 486 -483 0
31 152 -488 0
-31 152 488 0
31 -152 488 0
-31 -152 -488 0
488 483 -273 0
-488 483 273 0
488 -483 273 0
-488 -483 -273 0
483 -489 0
488 -489 0
-483 -488 489 0
152 -490 0
31 -490 0
-152 -31 490 0
-489 487 0
-490 487 0
489 490 -487 0
32 153 -492 0
-32 153 492 0
32 -153 492 0
-32 -153 -492 0
492 487 -274 0
-492 487 274 0
492 -487 274 0
-492 -487 -274 0
487 -493 0
492 -493 0
-487 -492 493 0
153 -494 0
32 -494 0
-153 -32 494 0
-493 491 0
-494 491 0
493 494 -491 0
33 154 -496 0
-33 154 496 0
33 -154 496 0
-33 -154 -496 0
496 491 -275 0
-496 491 275 0
496 -491 275 0
-496 -491 -275 0
491 -497 0
496 -497 0
-491 -496 497 0
154 -498 0
33 -498 0
-154 -33 498 0
-497 495 0
-498 495 0
497 498 -495 0
34 155 -500 0
-34 155 500 0
34 -155 500 0
-34 -155 -500 0
500 495 -276 0
-500 495 276 0
500 -495 276 0
-500 -495 -276 0
495 -501 0
500 -501 0
-495 -500 501 0
155 -502 0
34 -502 0
-155 -34 502 0
-501 499 0
-502 499 0
501 502 -499 0
35 156 -504 0
-35 156 504 0
35 -156 504 0
-35 -156 -504 0
504 499 -277 0
-504 499 277 0
504 -499 277 0
-504 -499 -277 0
499 -505 0
504 -505 0
-499 -504 505 0
156 -506 0
35 -506 0
-156 -35 506 0
-505 503 0
-506 503 0
505 506 -503 0
36 157 -508 0
-36 157 508 0
36 -157 508 0
-36 -157 -508 0
508 503 -278 0
-508 503 278 0
508 -503 278 0
-508 -503 -278 0
503 -509 0
508 -509 0
-503 -508 509 0
157 -510 0
36 -510 0
-157 -36 510 0
-509 507 0
-510 507 0
509 510 -507 0
37 158 -512 0
-37 158 512 0
37 -158 512 0
-37 -158 -512 0
512 507 -279 0
-512 507 279 0
512 -507 279 0
-512 -507 -279 0
507 -513 0
512 -513 0
-507 -512 513 0
158 -514 0
37 -514 0
-158 -37 514 0
-513 511 0
-514 511 0
513 514 -511 0
38 159 -516 0
-38 159 516 0
38 -159 516 0
-38 -159 -516 0
516 511 -280 0
-516 511 280 0
516 -511 280 0
-516 -511 -280 0
511 -517 0
516 -517 0
-511 -516 517 0
159 -518 0
38 -518 0
-159 -38 518 0
-517 515 0
-518 515 0
517 518 -515 0
39 160 -520 0
-39 160 520 0
39 -160 520 0
-39 -160 -520 0
520 515 -281 0
-520 515 281 0
520 -515 281 0
-520 -515 -281 0
515 -521 0
520 -521 0
-515 -520 521 0
160 -522 0
39 -522 0
-160 -39 522 0
-521 519 0
-522 519 0
521 522 -519 0
40 161 -524 0
-40 161 524 0
40 -161 524 0
-40 -161 -524 0
524 519 -282 0
-524 519 282 0
524 -519 282 0
-524 -519 -282 0
519 -525 0
524 -525 0
-519 -524 525 0
161 -526 0
40 -526 0
-161 -40 526 0
-525 523 0
-526 523 0
525 526 -523 0
41 162 -528 0
-41 162 528 0
41 -162 528 0
-41 -162 -528 0
528 523 -283 0
-528 523 283 0
528 -523 283 0
-528 -523 -283 0
523 -529 0
528 -529 0
-523 -528 529 0
162 -530 0
41 -530 0
-162 -41 530 0
-529 527 0
-530 527 0
529 530 -527 0
42 163 -532 0
-42 163 532 0
42 -163 532 0
-42 -163 -532 0
532 527 -284 0
-532 527 284 0
532 -527 284 0
-532 -527 -284 0
527 -533 0
532 -533 0
-527 -532 533 0
163 -534 0
42 -534 0
-163 -42 534 0
-533 531 0
-534 531 0
533 534 -531 0
43 164 -536 0
-43 164 536 0
43 -164 536 0
-43 -164 -536 0
536 531 -285 0
-536 531 285 0
536 -531 285 0
-536 -531 -285 0
531 -537 0
536 -537 0
-531 -536 537 0
164 -538 0
43 -538 0
-164 -43 538 0
-537 535 0
-538 535 0
537 538 -535 0
44 165 -540 0
-44 165 540 0
44 -165 540 0
-44 -165 -540 0
540 535 -286 0
-540 535 286 0
540 -535 286 0
-540 -535 -286 0
535 -541 0
540 -541 0
-535 -540 541 0
165 -542 0
44 -542 0
-165 -44 542 0
-541 539 0
-542 539 0
541 542 -539 0
45 166 -544 0
-45 166 544 0
45 -166 544 0
-45 -166 -544 0
544 539 -287 0
-544 539 287 0
544 -539 287 0
-544 -539 -287 0
539 -545 0
544 -545 0
-539 -544 545 0
166 -546 0
45 -546 0
-166 -45 546 0
-545 543 0
-546 543 0
545 546 -543 0
46 167 -548 0
-46 167 548 0
46 -167 548 0
-46 -167 -548 0
548 543 -288 0
-548 543 288 0
548 -543 288 0
-548 -543 -288 0
543 -549 0
548 -549 0
-543 -548 549 0
167 -550 0
46 -550 0
-167 -46 550 0
-549 547 0
-550 547 0
549 550 -547 0
47 168 -552 0
-47 168 552 0
47 -168 552 0
-47 -168 -552 0
552 547 -289 0
-552 547 289 0
552 -547 289 0
-552 -547 -289 0
547 -553 0
552 -553 0
-547 -552 553 0
168 -554 0
47 -554 0
-168 -47 554 0
-553 551 0
-554 551 0
553 554 -551 0
48 169 -556 0
-48 169 556 0
48 -169 556 0
-48 -169 -556 0
556 551 -290 0
-556 551 290 0
556 -551 290 0
-556 -551 -290 0
551 -557 0
556 -557 0
-551 -556 557 0
169 -558 0
48 -558 0
-169 -48 558 0
-557 555 0
-558 555 0
557 558 -555 0
49 170 -560 0
-49 170 560 0
49 -170 560 0
-49 -170 -560 0
560 555 -291 0
-560 555 291 0
560 -555 291 0
-560 -555 -291 0
555 -561 0
560 -561 0
-555 -560 561 0
170 -562 0
49 -562 0
-170 -49 562 0
-561 559 0
-562 559 0
561 562 -559 0
50 171 -564 0
-50 171 564 0
50 -171 564 0
-50 -171 -564 0
564 559 -292 0
-564 559 292 0
564 -559 292 0
-564 -559 -292 0
559 -565 0
564 -565 0
-559 -564 565 0
171 -566 0
50 -566 0
-171 -50 566 0
-565 563 0
-566 563 0
565 566 -563 0
51 172 -568 0
-51 172 568 0
51 -172 568 0
-51 -172 -568 0
568 563 -293 0
-568 563 293 0
568 -563 293 0
-568 -563 -293 0
563 -569 0
568 -569 0
-563 -568 569 0
172 -570 0
51 -570 0
-172 -51 570 0
-569 567 0
-570 567 0
569 570 -567 0
52 173 -572 0
-52 173 572 0
52 -173 572 0
-52 -173 -572 0
572 567 -294 0
-572 567 294 0
572 -567 294 0
-572 -567 -294 0
567 -573 0
572 -573 0
-567 -572 573 0
173 -574 0
52 -574 0
-173 -52 574 0
-573 571 0
-574 571 0
573 574 -571 0
53 174 -576 0
-53 174 576 0
53 -174 576 0
-53 -174 -576 0
576 571 -295 0
-576 571 295 0
576 -571 295 0
-576 -571 -295 0
571 -577 0
576 -577 0
-571 -576 577 0
174 -578 0
53 -578 0
-174 -53 578 0
-577 575 0
-578 575 0
577 578 -575 0
54 175 -580 0
-54 175 580 0
54 -175 580 0
-54 -175 -580 0
580 575 -296 0
-580 575 296 0
580 -575 296 0
-580 -575 -296 0
575 -581 0
580 -581 0
-575 -580 581 0
175 -582 0
54 -582 0
-175 -54 582 0
-581 579 0
-582 579 0
581 582 -579 0
55 176 -584 0
-55 176 584 0
55 -176 584 0
-55 -176 -584 0
584 579 -297 0
-584 579 297 0
584 -579 297 0
-584 -579 -297 0
579 -585 0
584 -585 0
-579 -584 585 0
176 -586 0
55 -586 0
-176 -55 586 0
-585 583 0
-586 583 0
585 586 -583 0
56 177 -588 0
-56 177 588 0
56 -177 588 0
-56 -177 -588 0
588 583 -298 0
-588 583 298 0
588 -583 298 0
-588 -583 -298 0
583 -589 0
588 -589 0
-583 -588 589 0
177 -590 0
56 -590 0
-177 -56 590 0
-589 587 0
-590 587 0
589 590 -587 0
57 178 -592 0
-57 178 592 0
57 -178 592 0
-57 -178 -592 0
592 587 -299 0
-592 587 299 0
592 -587 299 0
-592 -587 -299 0
587 -593 0
592 -593 0
-587 -592 593 0
178 -594 0
57 -594 0
-178 -57 594 0
-593 591 0
-594 591 0
593 594 -591 0
58 179 -596 0
-58 179 596 0
58 -179 596 0
-58 -179 -596 0
596 591 -300 0
-596 591 300 0
596 -591 300 0
-596 -591 -300 0
591 -597 0
596 -597 0
-591 -596 597 0
179 -598 0
58 -598 0
-179 -58 598 0
-597 595 0
-598 595 0
597 598 -595 0
59 180 -600 0
-59 180 600 0
59 -180 600 0
-59 -180 -600 0
600 595 -301 0
-600 595 301 0
600 -595 301 0
-600 -595 -301 0
595 -601 0
600 -601 0
-595 -600 601 0
180 -602 0
59 -602 0
-180 -59 602 0
-601 599 0
-602 599 0
601 602 -599 0
60 181 -604 0
-60 181 604 0
60 -181 604 0
-60 -181 -604 0
604 599 -302 0
-604 599 302 0
604 -599 302 0
-604 -599 -302 0
599 -605 0
604 -605 0
-599 -604 605 0
181 -606 0
60 -606 0
-181 -60 606 0
-605 603 0
-606 603 0
605 606 -603 0
61 182 -608 0
-61 182 608 0
61 -182 608 0
-61 -182 -608 0
608 603 -303 0
-608 603 303 0
608 -603 303 0
-608 -603 -303 0
603 -609 0
608 -609 0
-603 -608 609 0
182 -610 0
61 -610 0
-182 -61 610 0
-609 607 0
-610 607 0
609 610 -607 0
62 183 -612 0
-62 183 612 0
62 -183 612 0
-62 -183 -612 0
612 607 -304 0
-612 607 304 0
612 -607 304 0
-612 -607 -304 0
607 -613 0
612 -613 0
-607 -612 613 0
183 -614 0
62 -614 0
-183 -62 614 0
-613 611 0
-614 611 0
613 614 -611 0
63 184 -616 0
-63 184 616 0
63 -184 616 0
-63 -184 -616 0
616 611 -305 0
-616 611 305 0
616 -611 305 0
-616 -611 -305 0
611 -617 0
616 -617 0
-611 -616 617 0
184 -618 0
63 -618 0
-184 -63 618 0
-617 615 0
-618 615 0
617 618 -615 0
64 185 -620 0
-64 185 620 0
64 -185 620 0
-64 -185 -620 0
620 615 -306 0
-620 615 306 0
620 -615 306 0
-620 -615 -306 0
615 -621 0
620 -621 0
-615 -620 621 0
185 -622 0
64 -622 0
-185 -64 622 0
-621 619 0
-622 619 0
621 622 -619 0
65 186 -624 0
-65 186 624 0
65 -186 624 0
-65 -186 -624 0
624 619 -307 0
-624 619 307 0
624 -619 307 0
-624 -619 -307 0
619 -625 0
624 -625 0
-619 -624 625 0
186 -626 0
65 -626 0
-186 -65 626 0
-625 623 0
-626 623 0
625 626 -623 0
66 187 -628 0
-66 187 628 0
66 -187 628 0
-66 -187 -628 0
628 623 -308 0
-628 623 308 0
628 -623 308 0
-628 -623 -308 0
623 -629 0
628 -629 0
-623 -628 629 0
187 -630 0
66 -630 0
-187 -66 630 0
-629 627 0
-630 627 0
629 630 -627 0
67 188 -632 0
-67 188 632 0
67 -188 632 0
-67 -188 -632 0
632 627 -309 0
-632 627 309 0
632 -627 309 0
-632 -627 -309 0
627 -633 0
632 -633 0
-627 -632 633 0
188 -634 0
67 -634 0
-188 -67 634 0
-633 631 0
-634 631 0
633 634 -631 0
68 189 -636 0
-68 189 636 0
68 -189 636 0
-68 -189 -636 0
636 631 -310 0
-636 631 310 0
636 -631 310 0
-636 -631 -310 0
631 -637 0
636 -637 0
-631 -636 637 0
189 -638 0
68 -638 0
-189 -68 638 0
-637 635 0
-638 635 0
637 638 -635 0
69 190 -640 0
-69 190 640 0
69 -190 640 0
-69 -190 -640 0
640 635 -311 0
-640 635 311 0
640 -635 311 0
-640 -635 -311 0
635 -641 0
640 -641 0
-635 -640 641 0
190 -642 0
69 -642 0
-190 -69 642 0
-641 639 0
-642 639 0
641 642 -639 0
70 191 -644 0
-70 191 644 0
70 -191 644 0
-70 -191 -644 0
644 639 -312 0
-644 639 312 0
644 -639 312 0
-644 -639 -312 0
639 -645 0
644 -645 0
-639 -644 645 0
191 -646 0
70 -646 0
-191 -70 646 0
-645 643 0
-646 643 0
645 646 -643 0
71 192 -648 0
-71 192 648 0
71 -192 648 0
-71 -192 -648 0
648 643 -313 0
-648 643 313 0
648 -643 313 0
-648 -643 -313 0
643 -649 0
648 -649 0
-643 -648 649 0
192 -650 0
71 -650 0
-192 -71 650 0
-649 647 0
-650 647 0
649 650 -647 0
72 193 -652 0
-72 193 652 0
72 -193 652 0
-72 -193 -652 0
652 647 -314 0
-652 647 314 0
652 -647 314 0
-652 -647 -314 0
647 -653 0
652 -653 0
-647 -652 653 0
193 -654 0
72 -654 0
-193 -72 654 0
-653 651 0
-654 651 0
653 654 -651 0
73 194 -656 0
-73 194 656 0
73 -194 656 0
-73 -194 -656 0
656 651 -315 0
-656 651 315 0
656 -651 315 0
-656 -651 -315 0
651 -657 0
656 -657 0
-651 -656 657 0
194 -658 0
73 -658 0
-194 -73 658 0
-657 655 0
-658 655 0
657 658 -655 0
74 195 -660 0
-74 195 660 0
74 -195 660 0
-74 -195 -660 0
660 655 -316 0
-660 655 316 0
660 -655 316 0
-660 -655 -316 0
655 -661 0
660 -661 0
-655 -660 661 0
195 -662 0
74 -662 0
-195 -74 662 0
-661 659 0
-662 659 0
661 662 -659 0
75 196 -664 0
-75 196 664 0
75 -196 664 0
-75 -196 -664 0
664 659 -317 0
-664 659 317 0
664 -659 317 0
-664 -659 -317 0
659 -665 0
664 -665 0
-659 -664 665 0
196 -666 0
75 -666 0
-196 -75 666 0
-665 663 0
-666 663 0
665 666 -663 0
76 197 -668 0
-76 197 668 0
76 -197 668 0
-76 -197 -668 0
668 663 -318 0
-668 663 318 0
668 -663 318 0
-668 -663 -318 0
663 -669 0
668 -669 0
-663 -668 669 0
197 -670 0
76 -670 0
-197 -76 670 0
-669 667 0
-670 667 0
669 670 -667 0
77 198 -672 0
-77 198 672 0
77 -198 672 0
-77 -198 -672 0
672 667 -319 0
-672 667 319 0
672 -667 319 0
-672 -667 -319 0
667 -673 0
672 -673 0
-667 -672 673 0
198 -674 0
77 -674 0
-198 -77 674 0
-673 671 0
-674 671 0
673 674 -671 0
78 199 -676 0
-78 199 676 0
78 -199 676 0
-78 -199 -676 0
676 671 -320 0
-676 671 320 0
676 -671 320 0
-676 -671 -320 0
671 -677 0
676 -677 0
-671 -676 677 0
199 -678 0
78 -678 0
-199 -78 678 0
-677 675 0
-678 675 0
677 678 -675 0
79 200 -680 0
-79 200 680 0
79 -200 680 0
-79 -200 -680 0
680 675 -321 0
-680 675 321 0
680 -675 321 0
-680 -675 -321 0
675 -681 0
680 -681 0
-675 -680 681 0
200 -682 0
79 -682 0
-200 -79 682 0
-681 679 0
-682 679 0
681 682 -679 0
80 201 -684 0
-80 201 684 0
80 -201 684 0
-80 -201 -684 0
684 679 -322 0
-684 679 322 0
684 -679 322 0
-684 -679 -322 0
679 -685 0
684 -685 0
-679 -684 685 0
201 -686 0
80 -686 0
-201 -80 686 0
-685 683 0
-686 683 0
685 686 -683 0
81 202 -688 0
-81 202 688 0
81 -202 688 0
-81 -202 -688 0
688 683 -323 0
-688 683 323 0
688 -683 323 0
-688 -683 -323 0
683 -689 0
688 -689 0
-683 -688 689 0
202 -690 0
81 -690 0
-202 -81 690 0
-689 687 0
-690 687 0
689 690 -687 0
82 203 -692 0
-82 203 692 0
82 -203 692 0
-82 -203 -692 0
692 687 -324 0
-692 687 324 0
692 -687 324 0
-692 -687 -324 0
687 -693 0
692 -693 0
-687 -692 693 0
203 -694 0
82 -694 0
-203 -82 694 0
-693 691 0
-694 691 0
693 694 -691 0
83 204 -696 0
-83 204 696 0
83 -204 696 0
-83 -204 -696 0
696 691 -325 0
-696 691 325 0
696 -691 325 0
-696 -691 -325 0
691 -697 0
696 -697 0
-691 -696 697 0
204 -698 0
83 -698 0
-204 -83 698 0
-697 695 0
-698 695 0
697 698 -695 0
84 205 -700 0
-84 205 700 0
84 -205 700 0
-84 -205 -700 0
700 695 -326 0
-700 695 326 0
700 -695 326 0
-700 -695 -326 0
695 -701 0
700 -701 0
-695 -700 701 0
205 -702 0
84 -702 0
-205 -84 702 0
-701 699 0
-702 699 0
701 702 -699 0
85 206 -704 0
-85 206 704 0
85 -206 704 0
-85 -206 -704 0
704 699 -327 0
-704 699 327 0
704 -699 327 0
-704 -699 -327 0
699 -705 0
704 -705 0
-699 -704 705 0
206 -706 0
85 -706 0
-206 -85 706 0
-705 703 0
-706 703 0
705 706 -703 0
86 207 -708 0
-86 207 708 0
86 -207 708 0
-86 -207 -708 0
708 703 -328 0
-708 703 328 0
708 -703 328 0
-708 -703 -328 0
703 -709 0
708 -709 0
-703 -708 709 0
207 -710 0
86 -710 0
-207 -86 710 0
-709 707 0
-710 707 0
709 710 -707 0
87 208 -712 0
-87 208 712 0
87 -208 712 0
-87 -208 -712 0
712 707 -329 0
-712 707 329 0
712 -707 329 0
-712 -707 -329 0
707 -713 0
712 -713 0
-707 -712 713 0
208 -714 0
87 -714 0
-208 -87 714 0
-713 711 0
-714 711 0
713 714 -711 0
88 209 -716 0
-88 209 716 0
88 -209 716 0
-88 -209 -716 0
716 711 -330 0
-716 711 330 0
716 -711 330 0
-716 -711 -330 0
711 -717 0
716 -717 0
-711 -716 717 0
209 -718 0
88 -718 0
-209 -88 718 0
-717 715 0
-718 715 0
717 718 -715 0
89 210 -720 0
-89 210 720 0
89 -210 720 0
-89 -210 -720 0
720 715 -331 0
-720 715 331 0
720 -715 331 0
-720 -715 -331 0
715 -721 0
720 -721 0
-715 -720 721 0
210 -722 0
89 -722 0
-210 -89 722 0
-721 719 0
-722 719 0
721 722 -719 0
90 211 -724 0
-90 211 724 0
90 -211 724 0
-90 -211 -724 0
724 719 -332 0
-724 719 332 0
724 -719 332 0
-724 -719 -332 0
719 -725 0
724 -725 0
-719 -724 725 0
211 -726 0
90 -726 0
-211 -90 726 0
-725 723 0
-726 723 0
725 726 -723 0
91 212 -728 0
-91 212 728 0
91 -212 728 0
-91 -212 -728 0
728 723 -333 0
-728 723 333 0
728 -723 333 0
-728 -723 -333 0
723 -729 0
728 -729 0
-723 -728 729 0
212 -730 0
91 -730 0
-212 -91 730 0
-729 727 0
-730 727 0
729 730 -727 0
92 213 -732 0
-92 213 732 0
92 -213 732 0
-92 -213 -732 0
732 727 -334 0
-732 727 334 0
732 -727 334 0
-732 -727 -334 0
727 -733 0
732 -733 0
-727 -732 733 0
213 -734 0
92 -734 0
-213 -92 734 0
-733 731 0
-734 731 0
733 734 -731 0
93 214 -736 0
-93 214 736 0
93 -214 736 0
-93 -214 -736 0
736 731 -335 0
-736 731 335 0
736 -731 335 0
-736 -731 -335 0
731 -737 0
736 -737 0
-731 -736 737 0
214 -738 0
93 -738 0
-214 -93 738 0
-737 735 0
-738 735 0
737 738 -735 0
94 215 -740 0
-94 215 740 0
94 -215 740 0
-94 -215 -740 0
740 735 -336 0
-740 735 336 0
740 -735 336 0
-740 -735 -336 0
735 -741 0
740 -741 0
-735 -740 741 0
215 -742 0
94 -742 0
-215 -94 742 0
-741 739 0
-742 739 0
741 742 -739 0
95 216 -744 0
-95 216 744 0
95 -216 744 0
-95 -216 -744 0
744 739 -337 0
-744 739 337 0
744 -739 337 0
-744 -739 -337 0
739 -745 0
744 -745 0
-739 -744 745 0
216 -746 0
95 -746 0
-216 -95 746 0
-745 743 0
-746 743 0
745 746 -743 0
96 217 -748 0
-96 217 748 0
96 -217 748 0
-96 -217 -748 0
748 743 -338 0
-748 743 338 0
748 -743 338 0
-748 -743 -338 0
743 -749 0
748 -749 0
-743 -748 749 0
217 -750 0
96 -750 0
-217 -96 750 0
-749 747 0
-750 747 0
749 750 -747 0
97 218 -752 0
-97 218 752 0
97 -218 752 0
-97 -218 -752 0
752 747 -339 0
-752 747 339 0
752 -747 339 0
-752 -747 -339 0
747 -753 0
752 -753 0
-747 -752 753 0
218 -754 0
97 -754 0
-218 -97 754 0
-753 751 0
-754 751 0
753 754 -751 0
98 219 -756 0
-98 219 756 0
98 -219 756 0
-98 -219 -756 0
756 751 -340 0
-756 751 340 0
756 -751 340 0
-756 -751 -340 0
751 -757 0
756 -757 0
-751 -756 757 0
219 -758 0
98 -758 0
-219 -98 758 0
-757 755 0
-758 755 0
757 758 -755 0
99 220 -760 0
-99 220 760 0
99 -220 760 0
-99 -220 -760 0
760 755 -341 0
-760 755 341 0
760 -755 341 0
-760 -755 -341 0
755 -761 0
760 -761 0
-755 -760 761 0
220 -762 0
99 -762 0
-220 -99 762 0
-761 759 0
-762 759 0
761 762 -759 0
100 221 -764 0
-100 221 764 0
100 -221 764 0
-100 -221 -764 0
764 759 -342 0
-764 759 342 0
764 -759 342 0
-764 -759 -342 0
759 -765 0
764 -765 0
-759 -764 765 0
221 -766 0
100 -766 0
-221 -100 766 0
-765 763 0
-766 763 0
765 766 -763 0
101 222 -768 0
-101 222 768 0
101 -222 768 0
-101 -222 -768 0
768 763 -343 0
-768 763 343 0
768 -763 343 0
-768 -763 -343 0
763 -769 0
768 -769 0
-763 -768 769 0
222 -770 0
101 -770 0
-222 -101 770 0
-769 767 0
-770 767 0
769 770 -767 0
102 223 -772 0
-102 223 772 0
102 -223 772 0
-102 -223 -772 0
772 767 -344 0
-772 767 344 0
772 -767 344 0
-772 -767 -344 0
767 -773 0
772 -773 0
-767 -772 773 0
223 -774 0
102 -774 0
-223 -102 774 0
-773 771 0
-774 771 0
773 774 -771 0
103 224 -776 0
-103 224 776 0
103 -224 776 0
-103 -224 -776 0
776 771 -345 0
-776 771 345 0
776 -771 345 0
-776 -771 -345 0
771 -777 0
776 -777 0
-771 -776 777 0
224 -778 0
103 -778 0
-224 -103 778 0
-777 775 0
-778 775 0
777 778 -775 0
104 225 -780 0
-104 225 780 0
104 -225 780 0
-104 -225 -780 0
780 775 -346 0
-780 775 346 0
780 -775 346 0
-780 -775 -346 0
775 -781 0
780 -781 0
-775 -780 781 0
225 -782 0
104 -782 0
-225 -104 782 0
-781 779 0
-782 779 0
781 782 -779 0
105 226 -784 0
-105 226 784 0
105 -226 784 0
-105 -226 -784 0
784 779 -347 0
-784 779 347 0
784 -779 347 0
-784 -779 -347 0
779 -785 0
784 -785 0
-779 -784 785 0
226 -786 0
105 -786 0
-226 -105 786 0
-785 783 0
-786 783 0
785 786 -783 0
106 227 -788 0
-106 227 788 0
106 -227 788 0
-106 -227 -788 0
788 783 -348 0
-788 783 348 0
788 -783 348 0
-788 -783 -348 0
783 -789 0
788 -789 0
-783 -788 789 0
227 -790 0
106 -790 0
-227 -106 790 0
-789 787 0
-790 787 0
789 790 -787 0
107 228 -792 0
-107 228 792 0
107 -228 792 0
-107 -228 -792 0
792 787 -349 0
-792 787 349 0
792 -787 349 0
-792 -787 -349 0
787 -793 0
792 -793 0
-787 -792 793 0
228 -794 0
107 -794 0
-228 -107 794 0
-793 791 0
-794 791 0
793 794 -791 0
108 229 -796 0
-108 229 796 0
108 -229 796 0
-108 -229 -796 0
796 791 -350 0
-796 791 350 0
796 -791 350 0
-796 -791 -350 0
791 -797 0
796 -797 0
-791 -796 797 0
229 -798 0
108 -798 0
-229 -108 798 0
-797 795 0
-798 795 0
797 798 -795 0
109 230 -800 0
-109 230 800 0
109 -230 800 0
-109 -230 -800 0
800 795 -351 0
-800 795 351 0
800 -795 351 0
-800 -795 -351 0
795 -801 0
800 -801 0
-795 -800 801 0
230 -802 0
109 -802 0
-230 -109 802 0
-801 799 0
-802 799 0
801 802 -799 0
110 231 -804 0
-110 231 804 0
110 -231 804 0
-110 -231 -804 0
804 799 -352 0
-804 799 352 0
804 -799 352 0
-804 -799 -352 0
799 -805 0
804 -805 0
-799 -804 805 0
231 -806 0
110 -806 0
-231 -110 806 0
-805 803 0
-806 803 0
805 806 -803 0
111 232 -808 0
-111 232 808 0
111 -232 808 0
-111 -232 -808 0
808 803 -353 0
-808 803 353 0
808 -803 353 0
-808 -803 -353 0
803 -809 0
808 -809 0
-803 -808 809 0
232 -810 0
111 -810 0
-232 -111 810 0
-809 807 0
-810 807 0
809 810 -807 0
112 233 -812 0
-112 233 812 0
112 -233 812 0
-112 -233 -812 0
812 807 -354 0
-812 807 354 0
812 -807 354 0
-812 -807 -354 0
807 -813 0
812 -813 0
-807 -812 813 0
233 -814 0
112 -814 0
-233 -112 814 0
-813 811 0
-814 811 0
813 814 -811 0
113 234 -816 0
-113 234 816 0
113 -234 816 0
-113 -234 -816 0
816 811 -355 0
-816 811 355 0
816 -811 355 0
-816 -811 -355 0
811 -817 0
816 -817 0
-811 -816 817 0
234 -818 0
113 -818 0
-234 -113 818 0
-817 815 0
-818 815 0
817 818 -815 0
114 235 -820 0
-114 235 820 0
114 -235 820 0
-114 -235 -820 0
820 815 -356 0
-820 815 356 0
820 -815 356 0
-820 -815 -356 0
815 -821 0
820 -821 0
-815 -820 821 0
235 -822 0
114 -822 0
-235 -114 822 0
-821 819 0
-822 819 0
821 822 -819 0
115 236 -824 0
-115 236 824 0
115 -236 824 0
-115 -236 -824 0
824 819 -357 0
-824 819 357 0
824 -819 357 0
-824 -819 -357 0
819 -825 0
824 -825 0
-819 -824 825 0
236 -826 0
115 -826 0
-236 -115 826 0
-825 823 0
-826 823 0
825 826 -823 0
116 237 -828 0
-116 237 828 0
116 -237 828 0
-116 -237 -828 0
828 823 -358 0
-828 823 358 0
828 -823 358 0
-828 -823 -358 0
823 -829 0
828 -829 0
-823 -828 829 0
237 -830 0
116 -830 0
-237 -116 830 0
-829 827 0
-830 827 0
829 830 -827 0
117 238 -832 0
-117 238 832 0
117 -238 832 0
-117 -238 -832 0
832 827 -359 0
-832 827 359 0
832 -827 359 0
-832 -827 -359 0
827 -833 0
832 -833 0
-827 -832 833 0
238 -834 0
117 -834 0
-238 -117 834 0
-833 831 0
-834 831 0
833 834 -831 0
118 239 -836 0
-118 239 836 0
118 -239 836 0
-118 -239 -836 0
836 831 -360 0
-836 831 360 0
836 -831 360 0
-836 -831 -360 0
831 -837 0
836 -837 0
-831 -836 837 0
239 -838 0
118 -838 0
-239 -118 838 0
-837 835 0
-838 835 0
837 838 -835 0
119 240 -840 0
-119 240 840 0
119 -240 840 0
-119 -240 -840 0
840 835 -361 0
-840 835 361 0
840 -835 361 0
-840 -835 -361 0
835 -841 0
840 -841 0
-835 -840 841 0
240 -842 0
119 -842 0
-240 -119 842 0
-841 839 0
-842 839 0
841 842 -839 0
120 241 -844 0
-120 241 844 0
120 -241 844 0
-120 -241 -844 0
844 839 -362 0
-844 839 362 0
844 -839 362 0
-844 -839 -362 0
839 -845 0
844 -845 0
-839 -844 845 0
241 -846 0
120 -846 0
-241 -120 846 0
-845 843 0
-846 843 0
845 846 -843 0
121 242 -847 0
-121 242 847 0
121 -242 847 0
-121 -242 -847 0
847 843 -363 0
-847 843 363 0
847 -843 363 0
-847 -843 -363 0
843 -848 0
847 -848 0
-843 -847 848 0
242 -849 0
121 -849 0
-242 -121 849 0
-848 364 0
-849 364 0
848 849 -364 0
